/*********************************************
 * OPL 12.6.0.0 Data
 * Author: Charlie Brown
 * Creation Date: 22 oct. 2015 at 20:36:12
 *********************************************/

n = 7;
capacity = 50;
profits = [70 20 39 35 7 5 9];
weights = [31 10 20 18 4 3 6];




